40
3	4	5	6	8	9	11	12	13	15	16	20	21	23	26	29	30	31	32	33	34	35	37	38	39	40	0
3	4	8	9	11	12	13	14	16	18	19	20	22	25	27	30	32	35	36	38	40	0
1	2	5	7	9	10	11	13	18	19	20	21	23	24	26	31	32	34	39	0
1	2	7	9	10	11	12	15	19	22	23	24	25	26	28	30	38	0
1	3	6	7	9	11	12	13	14	16	18	20	21	22	23	24	25	28	31	38	0
1	5	8	10	11	15	18	20	21	22	23	25	26	27	28	30	31	34	35	36	37	38	0
3	4	5	12	14	15	16	17	21	23	26	29	30	31	32	35	37	38	40	0
1	2	6	9	10	11	13	15	16	17	18	19	22	23	26	27	29	30	31	32	33	34	35	0
1	2	3	4	5	8	10	11	15	20	21	28	29	31	32	33	35	37	38	40	0
3	4	6	8	9	11	14	18	20	23	24	25	27	28	29	32	36	37	39	40	0
1	2	3	4	5	6	8	9	10	13	15	20	21	22	26	29	37	40	0
1	2	4	5	7	13	15	16	20	22	23	24	26	27	28	29	32	34	35	37	39	0
1	2	3	5	8	11	12	19	20	21	23	24	26	27	29	30	32	34	35	39	40	0
2	5	7	10	15	16	17	18	22	23	27	32	33	36	38	39	40	0
1	4	6	7	8	9	11	12	14	17	19	20	23	26	27	28	38	0
1	2	5	7	8	12	14	18	19	20	23	27	30	36	39	40	0
7	8	14	15	18	20	21	22	26	28	29	30	32	33	35	37	40	0
2	3	5	6	8	10	14	16	17	20	21	22	24	25	26	27	28	29	34	35	0
2	3	4	8	13	15	16	30	32	33	34	35	36	40	0
1	2	3	5	6	9	10	11	12	13	15	16	17	18	21	22	23	24	25	27	30	31	33	34	38	39	40	0
1	3	5	6	7	9	11	13	17	18	20	22	23	25	26	27	29	30	32	34	37	38	40	0
2	4	5	6	8	11	12	14	17	18	20	21	23	24	26	27	28	29	30	31	34	35	37	38	0
1	3	4	5	6	7	8	10	12	13	14	15	16	20	21	22	24	25	26	27	31	33	34	36	38	39	0
3	4	5	10	12	13	18	20	22	23	29	31	32	34	35	36	39	40	0
2	4	5	6	10	18	20	21	23	29	32	33	34	37	40	0
1	3	4	6	7	8	11	12	13	15	17	18	21	22	23	30	31	33	34	37	38	39	40	0
2	6	8	10	12	13	14	15	16	18	20	21	22	23	31	35	36	37	38	40	0
4	5	6	9	10	12	15	17	18	22	30	32	39	0
1	7	8	9	10	11	12	13	17	18	21	22	24	25	31	32	36	38	0
1	2	4	6	7	8	13	16	17	19	20	21	22	26	28	33	34	39	40	0
1	3	5	6	7	8	9	20	22	23	24	26	27	29	32	33	34	35	36	39	40	0
1	2	3	7	8	9	10	12	13	14	17	19	21	24	25	28	29	31	33	0
1	8	9	14	17	19	20	23	25	26	30	31	32	36	37	40	0
1	3	6	8	12	13	18	19	20	21	22	23	24	25	26	30	31	35	36	38	39	0
1	2	6	7	8	9	12	13	17	18	19	22	24	27	31	34	36	39	0
2	6	10	14	16	19	23	24	27	29	31	33	34	35	38	40	0
1	6	7	9	10	11	12	17	21	22	25	26	27	33	39	40	0
1	2	4	5	6	7	9	14	15	20	21	22	23	26	27	29	34	36	39	0
1	3	10	12	13	14	16	20	23	24	26	28	30	31	34	35	37	38	0
1	2	7	9	10	11	13	14	16	17	19	20	21	24	25	26	27	30	31	33	36	37	0


comments:
random graph
nodes 40
edges 390
rng seed 435 
